CITY = {A,B,C,D,E,F,G,H,I};
EDGE = {a1,b1,c1,d1,e1,f1,g1,h1,i1,a,b,c,d,e,f,g,h,i,j,k,l,m,n,o,p,q,r,s,t,u,v,w,x};
RESOURCE={machinery,labours};
L=[4,4];
% res=[|2,2|2,2|2,2|];
res=array2d(RESOURCE, FAIL, [2,2,2,2,2,2]);
noEdges = 22;
incoming = [{b,f,a1},{e,n,j,b1},{m,r,c1},{a,d,g,d1},{c,s,e1},{h,i,o,l,f1},{q,p,g1},{k,t,h1},{u,x,i1}];
outgoing = [{a,e,a1},{f,i,m,b1},{n,q,c1},{b,c,h,d1},{d,t,e1},{g,j,p,k,f1},{o,r,g1},{l,s,h1},{v,w,i1}];
capacity =[1000,1000,1000,1000,1000,1000,1000,1000,1000,100,100,500,500,200,200,1100,1100,100,100,700,700,400,400,700,700,500,500,500,500,700,700,1100,1100];
self_edges={a1,b1,c1,d1,e1,f1,g1,h1,i1};
fails =3;
fail_points = [D,C,F];
duration = [18,10,5];